; benchmark generated from python API
(set-info :status unknown)
(declare-fun cell_1_3 () Int)
(declare-fun cell_1_4 () Int)
(declare-fun cell_2_7 () Int)
(declare-fun cell_2_8 () Int)
(declare-fun cell_3_1 () Int)
(declare-fun cell_3_6 () Int)
(declare-fun cell_4_2 () Int)
(declare-fun cell_4_3 () Int)
(declare-fun cell_5_6 () Int)
(declare-fun cell_5_9 () Int)
(declare-fun cell_6_4 () Int)
(declare-fun cell_6_8 () Int)
(declare-fun cell_7_1 () Int)
(declare-fun cell_7_5 () Int)
(declare-fun cell_8_2 () Int)
(declare-fun cell_9_9 () Int)
(declare-fun cell_1_1 () Int)
(declare-fun cell_2_1 () Int)
(declare-fun cell_4_1 () Int)
(declare-fun cell_5_1 () Int)
(declare-fun cell_6_1 () Int)
(declare-fun cell_8_1 () Int)
(declare-fun cell_9_1 () Int)
(declare-fun cell_1_2 () Int)
(declare-fun cell_2_2 () Int)
(declare-fun cell_3_2 () Int)
(declare-fun cell_5_2 () Int)
(declare-fun cell_6_2 () Int)
(declare-fun cell_7_2 () Int)
(declare-fun cell_9_2 () Int)
(declare-fun cell_2_3 () Int)
(declare-fun cell_3_3 () Int)
(declare-fun cell_5_3 () Int)
(declare-fun cell_6_3 () Int)
(declare-fun cell_7_3 () Int)
(declare-fun cell_8_3 () Int)
(declare-fun cell_9_3 () Int)
(declare-fun cell_2_4 () Int)
(declare-fun cell_3_4 () Int)
(declare-fun cell_4_4 () Int)
(declare-fun cell_5_4 () Int)
(declare-fun cell_7_4 () Int)
(declare-fun cell_8_4 () Int)
(declare-fun cell_9_4 () Int)
(declare-fun cell_1_5 () Int)
(declare-fun cell_2_5 () Int)
(declare-fun cell_3_5 () Int)
(declare-fun cell_4_5 () Int)
(declare-fun cell_5_5 () Int)
(declare-fun cell_6_5 () Int)
(declare-fun cell_8_5 () Int)
(declare-fun cell_9_5 () Int)
(declare-fun cell_1_6 () Int)
(declare-fun cell_2_6 () Int)
(declare-fun cell_4_6 () Int)
(declare-fun cell_6_6 () Int)
(declare-fun cell_7_6 () Int)
(declare-fun cell_8_6 () Int)
(declare-fun cell_9_6 () Int)
(declare-fun cell_1_7 () Int)
(declare-fun cell_3_7 () Int)
(declare-fun cell_4_7 () Int)
(declare-fun cell_5_7 () Int)
(declare-fun cell_6_7 () Int)
(declare-fun cell_7_7 () Int)
(declare-fun cell_8_7 () Int)
(declare-fun cell_9_7 () Int)
(declare-fun cell_1_8 () Int)
(declare-fun cell_3_8 () Int)
(declare-fun cell_4_8 () Int)
(declare-fun cell_5_8 () Int)
(declare-fun cell_7_8 () Int)
(declare-fun cell_8_8 () Int)
(declare-fun cell_9_8 () Int)
(declare-fun cell_1_9 () Int)
(declare-fun cell_2_9 () Int)
(declare-fun cell_3_9 () Int)
(declare-fun cell_4_9 () Int)
(declare-fun cell_6_9 () Int)
(declare-fun cell_7_9 () Int)
(declare-fun cell_8_9 () Int)
(assert
 (= cell_1_3 2))
(assert
 (= cell_1_4 1))
(assert
 (= cell_2_7 1))
(assert
 (= cell_2_8 2))
(assert
 (= cell_3_1 1))
(assert
 (= cell_3_6 2))
(assert
 (= cell_4_2 2))
(assert
 (= cell_4_3 1))
(assert
 (= cell_5_6 1))
(assert
 (= cell_5_9 2))
(assert
 (= cell_6_4 2))
(assert
 (= cell_6_8 1))
(assert
 (= cell_7_1 2))
(assert
 (= cell_7_5 1))
(assert
 (= cell_8_2 1))
(assert
 (= cell_9_9 1))
(assert
 (let (($x1053 (= cell_1_1 9)))
 (let (($x2215 (= cell_1_1 8)))
 (let (($x272 (= cell_1_1 7)))
 (let (($x2142 (= cell_1_1 6)))
 (let (($x3199 (= cell_1_1 5)))
 (let (($x447 (= cell_1_1 4)))
 (let (($x2153 (= cell_1_1 3)))
 (let (($x2517 (= cell_1_1 2)))
 (let (($x1730 (= cell_1_1 1)))
 (or $x1730 $x2517 $x2153 $x447 $x3199 $x2142 $x272 $x2215 $x1053)))))))))))
(assert
 (let (($x1770 (= cell_2_1 9)))
 (let (($x635 (= cell_2_1 8)))
 (let (($x3358 (= cell_2_1 7)))
 (let (($x591 (= cell_2_1 6)))
 (let (($x93 (= cell_2_1 5)))
 (let (($x558 (= cell_2_1 4)))
 (let (($x3805 (= cell_2_1 3)))
 (let (($x1074 (= cell_2_1 2)))
 (let (($x900 (= cell_2_1 1)))
 (or $x900 $x1074 $x3805 $x558 $x93 $x591 $x3358 $x635 $x1770)))))))))))
(assert
 (let (($x2632 (= cell_3_1 1)))
 (or $x2632 (= cell_3_1 2) (= cell_3_1 3) (= cell_3_1 4) (= cell_3_1 5) (= cell_3_1 6) (= cell_3_1 7) (= cell_3_1 8) (= cell_3_1 9))))
(assert
 (let (($x1957 (= cell_4_1 9)))
 (let (($x3320 (= cell_4_1 8)))
 (let (($x2705 (= cell_4_1 7)))
 (let (($x3426 (= cell_4_1 6)))
 (let (($x6468 (= cell_4_1 5)))
 (let (($x245 (= cell_4_1 4)))
 (let (($x915 (= cell_4_1 3)))
 (let (($x2368 (= cell_4_1 2)))
 (let (($x3274 (= cell_4_1 1)))
 (or $x3274 $x2368 $x915 $x245 $x6468 $x3426 $x2705 $x3320 $x1957)))))))))))
(assert
 (let (($x2465 (= cell_5_1 9)))
 (let (($x2504 (= cell_5_1 8)))
 (let (($x1320 (= cell_5_1 7)))
 (let (($x2318 (= cell_5_1 6)))
 (let (($x1209 (= cell_5_1 5)))
 (let (($x527 (= cell_5_1 4)))
 (let (($x3791 (= cell_5_1 3)))
 (let (($x653 (= cell_5_1 2)))
 (let (($x3374 (= cell_5_1 1)))
 (or $x3374 $x653 $x3791 $x527 $x1209 $x2318 $x1320 $x2504 $x2465)))))))))))
(assert
 (let (($x3171 (= cell_6_1 9)))
 (let (($x1112 (= cell_6_1 8)))
 (let (($x1214 (= cell_6_1 7)))
 (let (($x1627 (= cell_6_1 6)))
 (let (($x1975 (= cell_6_1 5)))
 (let (($x1553 (= cell_6_1 4)))
 (let (($x4947 (= cell_6_1 3)))
 (let (($x1852 (= cell_6_1 2)))
 (let (($x2929 (= cell_6_1 1)))
 (or $x2929 $x1852 $x4947 $x1553 $x1975 $x1627 $x1214 $x1112 $x3171)))))))))))
(assert
 (let (($x1367 (= cell_7_1 2)))
 (or (= cell_7_1 1) $x1367 (= cell_7_1 3) (= cell_7_1 4) (= cell_7_1 5) (= cell_7_1 6) (= cell_7_1 7) (= cell_7_1 8) (= cell_7_1 9))))
(assert
 (let (($x196 (= cell_8_1 9)))
 (let (($x935 (= cell_8_1 8)))
 (let (($x1988 (= cell_8_1 7)))
 (let (($x1952 (= cell_8_1 6)))
 (let (($x882 (= cell_8_1 5)))
 (let (($x3395 (= cell_8_1 4)))
 (let (($x3394 (= cell_8_1 3)))
 (let (($x3647 (= cell_8_1 2)))
 (let (($x562 (= cell_8_1 1)))
 (or $x562 $x3647 $x3394 $x3395 $x882 $x1952 $x1988 $x935 $x196)))))))))))
(assert
 (let (($x3818 (= cell_9_1 9)))
 (let (($x3616 (= cell_9_1 8)))
 (let (($x1383 (= cell_9_1 7)))
 (let (($x3569 (= cell_9_1 6)))
 (let (($x3168 (= cell_9_1 5)))
 (let (($x8164 (= cell_9_1 4)))
 (let (($x3796 (= cell_9_1 3)))
 (let (($x2231 (= cell_9_1 2)))
 (let (($x1358 (= cell_9_1 1)))
 (or $x1358 $x2231 $x3796 $x8164 $x3168 $x3569 $x1383 $x3616 $x3818)))))))))))
(assert
 (let (($x2598 (= cell_1_2 9)))
 (let (($x2002 (= cell_1_2 8)))
 (let (($x2842 (= cell_1_2 7)))
 (let (($x2445 (= cell_1_2 6)))
 (let (($x2206 (= cell_1_2 5)))
 (let (($x3031 (= cell_1_2 4)))
 (let (($x1171 (= cell_1_2 3)))
 (let (($x515 (= cell_1_2 2)))
 (let (($x1634 (= cell_1_2 1)))
 (or $x1634 $x515 $x1171 $x3031 $x2206 $x2445 $x2842 $x2002 $x2598)))))))))))
(assert
 (let (($x2850 (= cell_2_2 9)))
 (let (($x2427 (= cell_2_2 8)))
 (let (($x1956 (= cell_2_2 7)))
 (let (($x3620 (= cell_2_2 6)))
 (let (($x1888 (= cell_2_2 5)))
 (let (($x1357 (= cell_2_2 4)))
 (let (($x2323 (= cell_2_2 3)))
 (let (($x2103 (= cell_2_2 2)))
 (let (($x3080 (= cell_2_2 1)))
 (or $x3080 $x2103 $x2323 $x1357 $x1888 $x3620 $x1956 $x2427 $x2850)))))))))))
(assert
 (let (($x423 (= cell_3_2 9)))
 (let (($x3103 (= cell_3_2 8)))
 (let (($x3160 (= cell_3_2 7)))
 (let (($x3481 (= cell_3_2 6)))
 (let (($x1393 (= cell_3_2 5)))
 (let (($x1301 (= cell_3_2 4)))
 (let (($x613 (= cell_3_2 3)))
 (let (($x1751 (= cell_3_2 2)))
 (let (($x2353 (= cell_3_2 1)))
 (or $x2353 $x1751 $x613 $x1301 $x1393 $x3481 $x3160 $x3103 $x423)))))))))))
(assert
 (let (($x307 (= cell_4_2 2)))
 (or (= cell_4_2 1) $x307 (= cell_4_2 3) (= cell_4_2 4) (= cell_4_2 5) (= cell_4_2 6) (= cell_4_2 7) (= cell_4_2 8) (= cell_4_2 9))))
(assert
 (let (($x3486 (= cell_5_2 9)))
 (let (($x211 (= cell_5_2 8)))
 (let (($x3086 (= cell_5_2 7)))
 (let (($x3491 (= cell_5_2 6)))
 (let (($x1906 (= cell_5_2 5)))
 (let (($x2778 (= cell_5_2 4)))
 (let (($x1324 (= cell_5_2 3)))
 (let (($x401 (= cell_5_2 2)))
 (let (($x616 (= cell_5_2 1)))
 (or $x616 $x401 $x1324 $x2778 $x1906 $x3491 $x3086 $x211 $x3486)))))))))))
(assert
 (let (($x932 (= cell_6_2 9)))
 (let (($x3130 (= cell_6_2 8)))
 (let (($x1464 (= cell_6_2 7)))
 (let (($x3021 (= cell_6_2 6)))
 (let (($x697 (= cell_6_2 5)))
 (let (($x3833 (= cell_6_2 4)))
 (let (($x2392 (= cell_6_2 3)))
 (let (($x1213 (= cell_6_2 2)))
 (let (($x2896 (= cell_6_2 1)))
 (or $x2896 $x1213 $x2392 $x3833 $x697 $x3021 $x1464 $x3130 $x932)))))))))))
(assert
 (let (($x548 (= cell_7_2 9)))
 (let (($x491 (= cell_7_2 8)))
 (let (($x3062 (= cell_7_2 7)))
 (let (($x2981 (= cell_7_2 6)))
 (let (($x6 (= cell_7_2 5)))
 (let (($x3710 (= cell_7_2 4)))
 (let (($x183 (= cell_7_2 3)))
 (let (($x1315 (= cell_7_2 2)))
 (let (($x1558 (= cell_7_2 1)))
 (or $x1558 $x1315 $x183 $x3710 $x6 $x2981 $x3062 $x491 $x548)))))))))))
(assert
 (let (($x1087 (= cell_8_2 1)))
 (or $x1087 (= cell_8_2 2) (= cell_8_2 3) (= cell_8_2 4) (= cell_8_2 5) (= cell_8_2 6) (= cell_8_2 7) (= cell_8_2 8) (= cell_8_2 9))))
(assert
 (let (($x4795 (= cell_9_2 9)))
 (let (($x2900 (= cell_9_2 8)))
 (let (($x1543 (= cell_9_2 7)))
 (let (($x898 (= cell_9_2 6)))
 (let (($x418 (= cell_9_2 5)))
 (let (($x1937 (= cell_9_2 4)))
 (let (($x370 (= cell_9_2 3)))
 (let (($x1532 (= cell_9_2 2)))
 (let (($x70 (= cell_9_2 1)))
 (or $x70 $x1532 $x370 $x1937 $x418 $x898 $x1543 $x2900 $x4795)))))))))))
(assert
 (let (($x471 (= cell_1_3 2)))
 (or (= cell_1_3 1) $x471 (= cell_1_3 3) (= cell_1_3 4) (= cell_1_3 5) (= cell_1_3 6) (= cell_1_3 7) (= cell_1_3 8) (= cell_1_3 9))))
(assert
 (let (($x2601 (= cell_2_3 9)))
 (let (($x588 (= cell_2_3 8)))
 (let (($x2647 (= cell_2_3 7)))
 (let (($x549 (= cell_2_3 6)))
 (let (($x3696 (= cell_2_3 5)))
 (let (($x570 (= cell_2_3 4)))
 (let (($x8992 (= cell_2_3 3)))
 (let (($x2945 (= cell_2_3 2)))
 (let (($x2105 (= cell_2_3 1)))
 (or $x2105 $x2945 $x8992 $x570 $x3696 $x549 $x2647 $x588 $x2601)))))))))))
(assert
 (let (($x2186 (= cell_3_3 9)))
 (let (($x308 (= cell_3_3 8)))
 (let (($x1211 (= cell_3_3 7)))
 (let (($x4630 (= cell_3_3 6)))
 (let (($x1780 (= cell_3_3 5)))
 (let (($x1056 (= cell_3_3 4)))
 (let (($x975 (= cell_3_3 3)))
 (let (($x1283 (= cell_3_3 2)))
 (let (($x2284 (= cell_3_3 1)))
 (or $x2284 $x1283 $x975 $x1056 $x1780 $x4630 $x1211 $x308 $x2186)))))))))))
(assert
 (let (($x2037 (= cell_4_3 1)))
 (or $x2037 (= cell_4_3 2) (= cell_4_3 3) (= cell_4_3 4) (= cell_4_3 5) (= cell_4_3 6) (= cell_4_3 7) (= cell_4_3 8) (= cell_4_3 9))))
(assert
 (let (($x1430 (= cell_5_3 9)))
 (let (($x779 (= cell_5_3 8)))
 (let (($x3566 (= cell_5_3 7)))
 (let (($x1513 (= cell_5_3 6)))
 (let (($x650 (= cell_5_3 5)))
 (let (($x666 (= cell_5_3 4)))
 (let (($x2735 (= cell_5_3 3)))
 (let (($x3819 (= cell_5_3 2)))
 (let (($x1140 (= cell_5_3 1)))
 (or $x1140 $x3819 $x2735 $x666 $x650 $x1513 $x3566 $x779 $x1430)))))))))))
(assert
 (let (($x99 (= cell_6_3 9)))
 (let (($x1898 (= cell_6_3 8)))
 (let (($x2330 (= cell_6_3 7)))
 (let (($x2653 (= cell_6_3 6)))
 (let (($x2406 (= cell_6_3 5)))
 (let (($x7078 (= cell_6_3 4)))
 (let (($x244 (= cell_6_3 3)))
 (let (($x2164 (= cell_6_3 2)))
 (let (($x162 (= cell_6_3 1)))
 (or $x162 $x2164 $x244 $x7078 $x2406 $x2653 $x2330 $x1898 $x99)))))))))))
(assert
 (let (($x1174 (= cell_7_3 9)))
 (let (($x2272 (= cell_7_3 8)))
 (let (($x2629 (= cell_7_3 7)))
 (let (($x2014 (= cell_7_3 6)))
 (let (($x2863 (= cell_7_3 5)))
 (let (($x806 (= cell_7_3 4)))
 (let (($x1459 (= cell_7_3 3)))
 (let (($x1829 (= cell_7_3 2)))
 (let (($x1210 (= cell_7_3 1)))
 (or $x1210 $x1829 $x1459 $x806 $x2863 $x2014 $x2629 $x2272 $x1174)))))))))))
(assert
 (let (($x1756 (= cell_8_3 2)))
 (let (($x1729 (= cell_8_3 1)))
 (or $x1729 $x1756 (= cell_8_3 3) (= cell_8_3 4) (= cell_8_3 5) (= cell_8_3 6) (= cell_8_3 7) (= cell_8_3 8) (= cell_8_3 9)))))
(assert
 (let (($x9323 (= cell_9_3 9)))
 (let (($x2988 (= cell_9_3 8)))
 (let (($x3417 (= cell_9_3 7)))
 (let (($x1445 (= cell_9_3 6)))
 (let (($x179 (= cell_9_3 5)))
 (let (($x5970 (= cell_9_3 4)))
 (let (($x1886 (= cell_9_3 3)))
 (let (($x1394 (= cell_9_3 2)))
 (let (($x3063 (= cell_9_3 1)))
 (or $x3063 $x1394 $x1886 $x5970 $x179 $x1445 $x3417 $x2988 $x9323)))))))))))
(assert
 (let (($x3161 (= cell_1_4 1)))
 (or $x3161 (= cell_1_4 2) (= cell_1_4 3) (= cell_1_4 4) (= cell_1_4 5) (= cell_1_4 6) (= cell_1_4 7) (= cell_1_4 8) (= cell_1_4 9))))
(assert
 (let (($x524 (= cell_2_4 9)))
 (let (($x1682 (= cell_2_4 8)))
 (let (($x232 (= cell_2_4 7)))
 (let (($x1371 (= cell_2_4 6)))
 (let (($x938 (= cell_2_4 5)))
 (let (($x2402 (= cell_2_4 4)))
 (let (($x262 (= cell_2_4 3)))
 (let (($x1057 (= cell_2_4 2)))
 (let (($x3597 (= cell_2_4 1)))
 (or $x3597 $x1057 $x262 $x2402 $x938 $x1371 $x232 $x1682 $x524)))))))))))
(assert
 (let (($x1431 (= cell_3_4 9)))
 (let (($x1192 (= cell_3_4 8)))
 (let (($x2999 (= cell_3_4 7)))
 (let (($x2910 (= cell_3_4 6)))
 (let (($x1130 (= cell_3_4 5)))
 (let (($x914 (= cell_3_4 4)))
 (let (($x2505 (= cell_3_4 3)))
 (let (($x1844 (= cell_3_4 2)))
 (let (($x3166 (= cell_3_4 1)))
 (or $x3166 $x1844 $x2505 $x914 $x1130 $x2910 $x2999 $x1192 $x1431)))))))))))
(assert
 (let (($x2207 (= cell_4_4 9)))
 (let (($x851 (= cell_4_4 8)))
 (let (($x944 (= cell_4_4 7)))
 (let (($x2086 (= cell_4_4 6)))
 (let (($x1810 (= cell_4_4 5)))
 (let (($x2179 (= cell_4_4 4)))
 (let (($x133 (= cell_4_4 3)))
 (let (($x536 (= cell_4_4 2)))
 (let (($x1642 (= cell_4_4 1)))
 (or $x1642 $x536 $x133 $x2179 $x1810 $x2086 $x944 $x851 $x2207)))))))))))
(assert
 (let (($x3013 (= cell_5_4 9)))
 (let (($x2954 (= cell_5_4 8)))
 (let (($x175 (= cell_5_4 7)))
 (let (($x3219 (= cell_5_4 6)))
 (let (($x997 (= cell_5_4 5)))
 (let (($x1166 (= cell_5_4 4)))
 (let (($x9193 (= cell_5_4 3)))
 (let (($x3677 (= cell_5_4 2)))
 (let (($x1220 (= cell_5_4 1)))
 (or $x1220 $x3677 $x9193 $x1166 $x997 $x3219 $x175 $x2954 $x3013)))))))))))
(assert
 (let (($x1659 (= cell_6_4 2)))
 (or (= cell_6_4 1) $x1659 (= cell_6_4 3) (= cell_6_4 4) (= cell_6_4 5) (= cell_6_4 6) (= cell_6_4 7) (= cell_6_4 8) (= cell_6_4 9))))
(assert
 (let (($x2684 (= cell_7_4 9)))
 (let (($x2279 (= cell_7_4 8)))
 (let (($x2450 (= cell_7_4 7)))
 (let (($x3582 (= cell_7_4 6)))
 (let (($x124 (= cell_7_4 5)))
 (let (($x2309 (= cell_7_4 4)))
 (let (($x590 (= cell_7_4 3)))
 (let (($x3089 (= cell_7_4 2)))
 (let (($x2696 (= cell_7_4 1)))
 (or $x2696 $x3089 $x590 $x2309 $x124 $x3582 $x2450 $x2279 $x2684)))))))))))
(assert
 (let (($x1475 (= cell_8_4 2)))
 (let (($x457 (= cell_8_4 1)))
 (or $x457 $x1475 (= cell_8_4 3) (= cell_8_4 4) (= cell_8_4 5) (= cell_8_4 6) (= cell_8_4 7) (= cell_8_4 8) (= cell_8_4 9)))))
(assert
 (let (($x3321 (= cell_9_4 9)))
 (let (($x2572 (= cell_9_4 8)))
 (let (($x9561 (= cell_9_4 7)))
 (let (($x3788 (= cell_9_4 6)))
 (let (($x1009 (= cell_9_4 5)))
 (let (($x1277 (= cell_9_4 4)))
 (let (($x5037 (= cell_9_4 3)))
 (let (($x1837 (= cell_9_4 2)))
 (let (($x3801 (= cell_9_4 1)))
 (or $x3801 $x1837 $x5037 $x1277 $x1009 $x3788 $x9561 $x2572 $x3321)))))))))))
(assert
 (let (($x2062 (= cell_1_5 9)))
 (let (($x1938 (= cell_1_5 8)))
 (let (($x511 (= cell_1_5 7)))
 (let (($x293 (= cell_1_5 6)))
 (let (($x2051 (= cell_1_5 5)))
 (let (($x2915 (= cell_1_5 4)))
 (let (($x2495 (= cell_1_5 3)))
 (let (($x724 (= cell_1_5 2)))
 (let (($x399 (= cell_1_5 1)))
 (or $x399 $x724 $x2495 $x2915 $x2051 $x293 $x511 $x1938 $x2062)))))))))))
(assert
 (let (($x1237 (= cell_2_5 9)))
 (let (($x1700 (= cell_2_5 8)))
 (let (($x1644 (= cell_2_5 7)))
 (let (($x2528 (= cell_2_5 6)))
 (let (($x1350 (= cell_2_5 5)))
 (let (($x2079 (= cell_2_5 4)))
 (let (($x6473 (= cell_2_5 3)))
 (let (($x2317 (= cell_2_5 2)))
 (let (($x455 (= cell_2_5 1)))
 (or $x455 $x2317 $x6473 $x2079 $x1350 $x2528 $x1644 $x1700 $x1237)))))))))))
(assert
 (let (($x574 (= cell_3_5 9)))
 (let (($x1408 (= cell_3_5 8)))
 (let (($x1293 (= cell_3_5 7)))
 (let (($x2306 (= cell_3_5 6)))
 (let (($x411 (= cell_3_5 5)))
 (let (($x1724 (= cell_3_5 4)))
 (let (($x1033 (= cell_3_5 3)))
 (let (($x368 (= cell_3_5 2)))
 (let (($x9433 (= cell_3_5 1)))
 (or $x9433 $x368 $x1033 $x1724 $x411 $x2306 $x1293 $x1408 $x574)))))))))))
(assert
 (let (($x843 (= cell_4_5 9)))
 (let (($x3206 (= cell_4_5 8)))
 (let (($x3822 (= cell_4_5 7)))
 (let (($x2403 (= cell_4_5 6)))
 (let (($x496 (= cell_4_5 5)))
 (let (($x1909 (= cell_4_5 4)))
 (let (($x1421 (= cell_4_5 3)))
 (let (($x173 (= cell_4_5 2)))
 (let (($x2484 (= cell_4_5 1)))
 (or $x2484 $x173 $x1421 $x1909 $x496 $x2403 $x3822 $x3206 $x843)))))))))))
(assert
 (let (($x785 (= cell_5_5 9)))
 (let (($x2513 (= cell_5_5 8)))
 (let (($x755 (= cell_5_5 7)))
 (let (($x377 (= cell_5_5 6)))
 (let (($x2995 (= cell_5_5 5)))
 (let (($x2658 (= cell_5_5 4)))
 (let (($x889 (= cell_5_5 3)))
 (let (($x2918 (= cell_5_5 2)))
 (let (($x2463 (= cell_5_5 1)))
 (or $x2463 $x2918 $x889 $x2658 $x2995 $x377 $x755 $x2513 $x785)))))))))))
(assert
 (let (($x3502 (= cell_6_5 9)))
 (let (($x2443 (= cell_6_5 8)))
 (let (($x2409 (= cell_6_5 7)))
 (let (($x2641 (= cell_6_5 6)))
 (let (($x235 (= cell_6_5 5)))
 (let (($x2890 (= cell_6_5 4)))
 (let (($x3303 (= cell_6_5 3)))
 (let (($x2243 (= cell_6_5 2)))
 (let (($x3734 (= cell_6_5 1)))
 (or $x3734 $x2243 $x3303 $x2890 $x235 $x2641 $x2409 $x2443 $x3502)))))))))))
(assert
 (let (($x3726 (= cell_7_5 1)))
 (or $x3726 (= cell_7_5 2) (= cell_7_5 3) (= cell_7_5 4) (= cell_7_5 5) (= cell_7_5 6) (= cell_7_5 7) (= cell_7_5 8) (= cell_7_5 9))))
(assert
 (let (($x4500 (= cell_8_5 1)))
 (or $x4500 (= cell_8_5 2) (= cell_8_5 3) (= cell_8_5 4) (= cell_8_5 5) (= cell_8_5 6) (= cell_8_5 7) (= cell_8_5 8) (= cell_8_5 9))))
(assert
 (let (($x2577 (= cell_9_5 9)))
 (let (($x3331 (= cell_9_5 8)))
 (let (($x4972 (= cell_9_5 7)))
 (let (($x2808 (= cell_9_5 6)))
 (let (($x1776 (= cell_9_5 5)))
 (let (($x2377 (= cell_9_5 4)))
 (let (($x3729 (= cell_9_5 3)))
 (let (($x2162 (= cell_9_5 2)))
 (let (($x1354 (= cell_9_5 1)))
 (or $x1354 $x2162 $x3729 $x2377 $x1776 $x2808 $x4972 $x3331 $x2577)))))))))))
(assert
 (let (($x2157 (= cell_1_6 9)))
 (let (($x3257 (= cell_1_6 8)))
 (let (($x2899 (= cell_1_6 7)))
 (let (($x1351 (= cell_1_6 6)))
 (let (($x3228 (= cell_1_6 5)))
 (let (($x1918 (= cell_1_6 4)))
 (let (($x2799 (= cell_1_6 3)))
 (let (($x1846 (= cell_1_6 2)))
 (let (($x470 (= cell_1_6 1)))
 (or $x470 $x1846 $x2799 $x1918 $x3228 $x1351 $x2899 $x3257 $x2157)))))))))))
(assert
 (let (($x681 (= cell_2_6 9)))
 (let (($x3793 (= cell_2_6 8)))
 (let (($x677 (= cell_2_6 7)))
 (let (($x3723 (= cell_2_6 6)))
 (let (($x1496 (= cell_2_6 5)))
 (let (($x974 (= cell_2_6 4)))
 (let (($x1535 (= cell_2_6 3)))
 (let (($x922 (= cell_2_6 2)))
 (let (($x3678 (= cell_2_6 1)))
 (or $x3678 $x922 $x1535 $x974 $x1496 $x3723 $x677 $x3793 $x681)))))))))))
(assert
 (let (($x1643 (= cell_3_6 2)))
 (or (= cell_3_6 1) $x1643 (= cell_3_6 3) (= cell_3_6 4) (= cell_3_6 5) (= cell_3_6 6) (= cell_3_6 7) (= cell_3_6 8) (= cell_3_6 9))))
(assert
 (let (($x2018 (= cell_4_6 9)))
 (let (($x1920 (= cell_4_6 8)))
 (let (($x3310 (= cell_4_6 7)))
 (let (($x700 (= cell_4_6 6)))
 (let (($x2694 (= cell_4_6 5)))
 (let (($x842 (= cell_4_6 4)))
 (let (($x1287 (= cell_4_6 3)))
 (let (($x1577 (= cell_4_6 2)))
 (let (($x2363 (= cell_4_6 1)))
 (or $x2363 $x1577 $x1287 $x842 $x2694 $x700 $x3310 $x1920 $x2018)))))))))))
(assert
 (let (($x2239 (= cell_5_6 1)))
 (or $x2239 (= cell_5_6 2) (= cell_5_6 3) (= cell_5_6 4) (= cell_5_6 5) (= cell_5_6 6) (= cell_5_6 7) (= cell_5_6 8) (= cell_5_6 9))))
(assert
 (let (($x1522 (= cell_6_6 9)))
 (let (($x2603 (= cell_6_6 8)))
 (let (($x5306 (= cell_6_6 7)))
 (let (($x78 (= cell_6_6 6)))
 (let (($x9532 (= cell_6_6 5)))
 (let (($x1312 (= cell_6_6 4)))
 (let (($x1104 (= cell_6_6 3)))
 (let (($x2569 (= cell_6_6 2)))
 (let (($x7563 (= cell_6_6 1)))
 (or $x7563 $x2569 $x1104 $x1312 $x9532 $x78 $x5306 $x2603 $x1522)))))))))))
(assert
 (let (($x3624 (= cell_7_6 2)))
 (let (($x1069 (= cell_7_6 1)))
 (or $x1069 $x3624 (= cell_7_6 3) (= cell_7_6 4) (= cell_7_6 5) (= cell_7_6 6) (= cell_7_6 7) (= cell_7_6 8) (= cell_7_6 9)))))
(assert
 (let (($x954 (= cell_8_6 2)))
 (let (($x783 (= cell_8_6 1)))
 (or $x783 $x954 (= cell_8_6 3) (= cell_8_6 4) (= cell_8_6 5) (= cell_8_6 6) (= cell_8_6 7) (= cell_8_6 8) (= cell_8_6 9)))))
(assert
 (let (($x1146 (= cell_9_6 9)))
 (let (($x1101 (= cell_9_6 8)))
 (let (($x1360 (= cell_9_6 7)))
 (let (($x1834 (= cell_9_6 6)))
 (let (($x1746 (= cell_9_6 5)))
 (let (($x1635 (= cell_9_6 4)))
 (let (($x7874 (= cell_9_6 3)))
 (let (($x1303 (= cell_9_6 2)))
 (let (($x1733 (= cell_9_6 1)))
 (or $x1733 $x1303 $x7874 $x1635 $x1746 $x1834 $x1360 $x1101 $x1146)))))))))))
(assert
 (let (($x619 (= cell_1_7 9)))
 (let (($x3748 (= cell_1_7 8)))
 (let (($x671 (= cell_1_7 7)))
 (let (($x624 (= cell_1_7 6)))
 (let (($x238 (= cell_1_7 5)))
 (let (($x1561 (= cell_1_7 4)))
 (let (($x1395 (= cell_1_7 3)))
 (let (($x2404 (= cell_1_7 2)))
 (let (($x333 (= cell_1_7 1)))
 (or $x333 $x2404 $x1395 $x1561 $x238 $x624 $x671 $x3748 $x619)))))))))))
(assert
 (let (($x3400 (= cell_2_7 1)))
 (or $x3400 (= cell_2_7 2) (= cell_2_7 3) (= cell_2_7 4) (= cell_2_7 5) (= cell_2_7 6) (= cell_2_7 7) (= cell_2_7 8) (= cell_2_7 9))))
(assert
 (let (($x3074 (= cell_3_7 2)))
 (let (($x2109 (= cell_3_7 1)))
 (or $x2109 $x3074 (= cell_3_7 3) (= cell_3_7 4) (= cell_3_7 5) (= cell_3_7 6) (= cell_3_7 7) (= cell_3_7 8) (= cell_3_7 9)))))
(assert
 (let (($x3459 (= cell_4_7 9)))
 (let (($x636 (= cell_4_7 8)))
 (let (($x3808 (= cell_4_7 7)))
 (let (($x3167 (= cell_4_7 6)))
 (let (($x1857 (= cell_4_7 5)))
 (let (($x2703 (= cell_4_7 4)))
 (let (($x2074 (= cell_4_7 3)))
 (let (($x969 (= cell_4_7 2)))
 (let (($x1992 (= cell_4_7 1)))
 (or $x1992 $x969 $x2074 $x2703 $x1857 $x3167 $x3808 $x636 $x3459)))))))))))
(assert
 (let (($x2757 (= cell_5_7 9)))
 (let (($x8411 (= cell_5_7 8)))
 (let (($x3703 (= cell_5_7 7)))
 (let (($x479 (= cell_5_7 6)))
 (let (($x3722 (= cell_5_7 5)))
 (let (($x2875 (= cell_5_7 4)))
 (let (($x517 (= cell_5_7 3)))
 (let (($x2422 (= cell_5_7 2)))
 (let (($x3325 (= cell_5_7 1)))
 (or $x3325 $x2422 $x517 $x2875 $x3722 $x479 $x3703 $x8411 $x2757)))))))))))
(assert
 (let (($x820 (= cell_6_7 9)))
 (let (($x3105 (= cell_6_7 8)))
 (let (($x1856 (= cell_6_7 7)))
 (let (($x2028 (= cell_6_7 6)))
 (let (($x1419 (= cell_6_7 5)))
 (let (($x1895 (= cell_6_7 4)))
 (let (($x2380 (= cell_6_7 3)))
 (let (($x2144 (= cell_6_7 2)))
 (let (($x3797 (= cell_6_7 1)))
 (or $x3797 $x2144 $x2380 $x1895 $x1419 $x2028 $x1856 $x3105 $x820)))))))))))
(assert
 (let (($x2120 (= cell_7_7 9)))
 (let (($x3760 (= cell_7_7 8)))
 (let (($x4396 (= cell_7_7 7)))
 (let (($x1981 (= cell_7_7 6)))
 (let (($x782 (= cell_7_7 5)))
 (let (($x3777 (= cell_7_7 4)))
 (let (($x227 (= cell_7_7 3)))
 (let (($x1449 (= cell_7_7 2)))
 (let (($x444 (= cell_7_7 1)))
 (or $x444 $x1449 $x227 $x3777 $x782 $x1981 $x4396 $x3760 $x2120)))))))))))
(assert
 (let (($x2507 (= cell_8_7 9)))
 (let (($x3064 (= cell_8_7 8)))
 (let (($x2225 (= cell_8_7 7)))
 (let (($x9773 (= cell_8_7 6)))
 (let (($x3559 (= cell_8_7 5)))
 (let (($x3590 (= cell_8_7 4)))
 (let (($x1403 (= cell_8_7 3)))
 (let (($x804 (= cell_8_7 2)))
 (let (($x247 (= cell_8_7 1)))
 (or $x247 $x804 $x1403 $x3590 $x3559 $x9773 $x2225 $x3064 $x2507)))))))))))
(assert
 (let (($x2451 (= cell_9_7 9)))
 (let (($x1456 (= cell_9_7 8)))
 (let (($x3177 (= cell_9_7 7)))
 (let (($x3448 (= cell_9_7 6)))
 (let (($x3215 (= cell_9_7 5)))
 (let (($x2454 (= cell_9_7 4)))
 (let (($x3821 (= cell_9_7 3)))
 (let (($x2056 (= cell_9_7 2)))
 (let (($x2396 (= cell_9_7 1)))
 (or $x2396 $x2056 $x3821 $x2454 $x3215 $x3448 $x3177 $x1456 $x2451)))))))))))
(assert
 (let (($x2019 (= cell_1_8 9)))
 (let (($x1339 (= cell_1_8 8)))
 (let (($x1296 (= cell_1_8 7)))
 (let (($x438 (= cell_1_8 6)))
 (let (($x8100 (= cell_1_8 5)))
 (let (($x3203 (= cell_1_8 4)))
 (let (($x2348 (= cell_1_8 3)))
 (let (($x3667 (= cell_1_8 2)))
 (let (($x2035 (= cell_1_8 1)))
 (or $x2035 $x3667 $x2348 $x3203 $x8100 $x438 $x1296 $x1339 $x2019)))))))))))
(assert
 (let (($x1362 (= cell_2_8 2)))
 (or (= cell_2_8 1) $x1362 (= cell_2_8 3) (= cell_2_8 4) (= cell_2_8 5) (= cell_2_8 6) (= cell_2_8 7) (= cell_2_8 8) (= cell_2_8 9))))
(assert
 (let (($x2596 (= cell_3_8 9)))
 (let (($x5054 (= cell_3_8 8)))
 (let (($x3236 (= cell_3_8 7)))
 (let (($x2211 (= cell_3_8 6)))
 (let (($x3308 (= cell_3_8 5)))
 (let (($x1681 (= cell_3_8 4)))
 (let (($x3496 (= cell_3_8 3)))
 (let (($x8975 (= cell_3_8 2)))
 (let (($x120 (= cell_3_8 1)))
 (or $x120 $x8975 $x3496 $x1681 $x3308 $x2211 $x3236 $x5054 $x2596)))))))))))
(assert
 (let (($x3581 (= cell_4_8 9)))
 (let (($x587 (= cell_4_8 8)))
 (let (($x665 (= cell_4_8 7)))
 (let (($x63 (= cell_4_8 6)))
 (let (($x1804 (= cell_4_8 5)))
 (let (($x1141 (= cell_4_8 4)))
 (let (($x2010 (= cell_4_8 3)))
 (let (($x822 (= cell_4_8 2)))
 (let (($x2904 (= cell_4_8 1)))
 (or $x2904 $x822 $x2010 $x1141 $x1804 $x63 $x665 $x587 $x3581)))))))))))
(assert
 (let (($x1842 (= cell_5_8 9)))
 (let (($x3057 (= cell_5_8 8)))
 (let (($x2047 (= cell_5_8 7)))
 (let (($x499 (= cell_5_8 6)))
 (let (($x651 (= cell_5_8 5)))
 (let (($x950 (= cell_5_8 4)))
 (let (($x1342 (= cell_5_8 3)))
 (let (($x5411 (= cell_5_8 2)))
 (let (($x649 (= cell_5_8 1)))
 (or $x649 $x5411 $x1342 $x950 $x651 $x499 $x2047 $x3057 $x1842)))))))))))
(assert
 (let (($x3368 (= cell_6_8 1)))
 (or $x3368 (= cell_6_8 2) (= cell_6_8 3) (= cell_6_8 4) (= cell_6_8 5) (= cell_6_8 6) (= cell_6_8 7) (= cell_6_8 8) (= cell_6_8 9))))
(assert
 (let (($x912 (= cell_7_8 9)))
 (let (($x2447 (= cell_7_8 8)))
 (let (($x945 (= cell_7_8 7)))
 (let (($x2431 (= cell_7_8 6)))
 (let (($x5613 (= cell_7_8 5)))
 (let (($x3751 (= cell_7_8 4)))
 (let (($x439 (= cell_7_8 3)))
 (let (($x2097 (= cell_7_8 2)))
 (let (($x1621 (= cell_7_8 1)))
 (or $x1621 $x2097 $x439 $x3751 $x5613 $x2431 $x945 $x2447 $x912)))))))))))
(assert
 (let (($x3567 (= cell_8_8 9)))
 (let (($x575 (= cell_8_8 8)))
 (let (($x1662 (= cell_8_8 7)))
 (let (($x435 (= cell_8_8 6)))
 (let (($x2567 (= cell_8_8 5)))
 (let (($x3571 (= cell_8_8 4)))
 (let (($x3270 (= cell_8_8 3)))
 (let (($x709 (= cell_8_8 2)))
 (let (($x484 (= cell_8_8 1)))
 (or $x484 $x709 $x3270 $x3571 $x2567 $x435 $x1662 $x575 $x3567)))))))))))
(assert
 (let (($x5535 (= cell_9_8 9)))
 (let (($x2771 (= cell_9_8 8)))
 (let (($x3457 (= cell_9_8 7)))
 (let (($x2613 (= cell_9_8 6)))
 (let (($x1803 (= cell_9_8 5)))
 (let (($x1470 (= cell_9_8 4)))
 (let (($x2580 (= cell_9_8 3)))
 (let (($x1695 (= cell_9_8 2)))
 (let (($x612 (= cell_9_8 1)))
 (or $x612 $x1695 $x2580 $x1470 $x1803 $x2613 $x3457 $x2771 $x5535)))))))))))
(assert
 (let (($x3104 (= cell_1_9 9)))
 (let (($x3773 (= cell_1_9 8)))
 (let (($x1887 (= cell_1_9 7)))
 (let (($x1039 (= cell_1_9 6)))
 (let (($x596 (= cell_1_9 5)))
 (let (($x1529 (= cell_1_9 4)))
 (let (($x1665 (= cell_1_9 3)))
 (let (($x1236 (= cell_1_9 2)))
 (let (($x3749 (= cell_1_9 1)))
 (or $x3749 $x1236 $x1665 $x1529 $x596 $x1039 $x1887 $x3773 $x3104)))))))))))
(assert
 (let (($x66 (= cell_2_9 9)))
 (let (($x1107 (= cell_2_9 8)))
 (let (($x2245 (= cell_2_9 7)))
 (let (($x2217 (= cell_2_9 6)))
 (let (($x1932 (= cell_2_9 5)))
 (let (($x2804 (= cell_2_9 4)))
 (let (($x3499 (= cell_2_9 3)))
 (let (($x33 (= cell_2_9 2)))
 (let (($x1950 (= cell_2_9 1)))
 (or $x1950 $x33 $x3499 $x2804 $x1932 $x2217 $x2245 $x1107 $x66)))))))))))
(assert
 (let (($x2761 (= cell_3_9 9)))
 (let (($x1873 (= cell_3_9 8)))
 (let (($x1344 (= cell_3_9 7)))
 (let (($x839 (= cell_3_9 6)))
 (let (($x2697 (= cell_3_9 5)))
 (let (($x3243 (= cell_3_9 4)))
 (let (($x513 (= cell_3_9 3)))
 (let (($x1515 (= cell_3_9 2)))
 (let (($x1720 (= cell_3_9 1)))
 (or $x1720 $x1515 $x513 $x3243 $x2697 $x839 $x1344 $x1873 $x2761)))))))))))
(assert
 (let (($x313 (= cell_4_9 9)))
 (let (($x3381 (= cell_4_9 8)))
 (let (($x3146 (= cell_4_9 7)))
 (let (($x3828 (= cell_4_9 6)))
 (let (($x2874 (= cell_4_9 5)))
 (let (($x3253 (= cell_4_9 4)))
 (let (($x2909 (= cell_4_9 3)))
 (let (($x2481 (= cell_4_9 2)))
 (let (($x3684 (= cell_4_9 1)))
 (or $x3684 $x2481 $x2909 $x3253 $x2874 $x3828 $x3146 $x3381 $x313)))))))))))
(assert
 (let (($x3185 (= cell_5_9 2)))
 (or (= cell_5_9 1) $x3185 (= cell_5_9 3) (= cell_5_9 4) (= cell_5_9 5) (= cell_5_9 6) (= cell_5_9 7) (= cell_5_9 8) (= cell_5_9 9))))
(assert
 (let (($x949 (= cell_6_9 9)))
 (let (($x3779 (= cell_6_9 8)))
 (let (($x3097 (= cell_6_9 7)))
 (let (($x371 (= cell_6_9 6)))
 (let (($x1479 (= cell_6_9 5)))
 (let (($x2347 (= cell_6_9 4)))
 (let (($x3261 (= cell_6_9 3)))
 (let (($x1401 (= cell_6_9 2)))
 (let (($x1491 (= cell_6_9 1)))
 (or $x1491 $x1401 $x3261 $x2347 $x1479 $x371 $x3097 $x3779 $x949)))))))))))
(assert
 (let (($x2847 (= cell_7_9 9)))
 (let (($x828 (= cell_7_9 8)))
 (let (($x3695 (= cell_7_9 7)))
 (let (($x1638 (= cell_7_9 6)))
 (let (($x3034 (= cell_7_9 5)))
 (let (($x3433 (= cell_7_9 4)))
 (let (($x2943 (= cell_7_9 3)))
 (let (($x8973 (= cell_7_9 2)))
 (let (($x1272 (= cell_7_9 1)))
 (or $x1272 $x8973 $x2943 $x3433 $x3034 $x1638 $x3695 $x828 $x2847)))))))))))
(assert
 (let (($x660 (= cell_8_9 9)))
 (let (($x254 (= cell_8_9 8)))
 (let (($x701 (= cell_8_9 7)))
 (let (($x929 (= cell_8_9 6)))
 (let (($x2565 (= cell_8_9 5)))
 (let (($x2118 (= cell_8_9 4)))
 (let (($x1460 (= cell_8_9 3)))
 (let (($x318 (= cell_8_9 2)))
 (let (($x2948 (= cell_8_9 1)))
 (or $x2948 $x318 $x1460 $x2118 $x2565 $x929 $x701 $x254 $x660)))))))))))
(assert
 (let (($x3478 (= cell_9_9 1)))
 (or $x3478 (= cell_9_9 2) (= cell_9_9 3) (= cell_9_9 4) (= cell_9_9 5) (= cell_9_9 6) (= cell_9_9 7) (= cell_9_9 8) (= cell_9_9 9))))
(assert
 (and (distinct cell_1_1 cell_1_2 cell_1_3 cell_1_4 cell_1_5 cell_1_6 cell_1_7 cell_1_8 cell_1_9) true))
(assert
 (and (distinct cell_2_1 cell_2_2 cell_2_3 cell_2_4 cell_2_5 cell_2_6 cell_2_7 cell_2_8 cell_2_9) true))
(assert
 (and (distinct cell_3_1 cell_3_2 cell_3_3 cell_3_4 cell_3_5 cell_3_6 cell_3_7 cell_3_8 cell_3_9) true))
(assert
 (and (distinct cell_4_1 cell_4_2 cell_4_3 cell_4_4 cell_4_5 cell_4_6 cell_4_7 cell_4_8 cell_4_9) true))
(assert
 (and (distinct cell_5_1 cell_5_2 cell_5_3 cell_5_4 cell_5_5 cell_5_6 cell_5_7 cell_5_8 cell_5_9) true))
(assert
 (and (distinct cell_6_1 cell_6_2 cell_6_3 cell_6_4 cell_6_5 cell_6_6 cell_6_7 cell_6_8 cell_6_9) true))
(assert
 (and (distinct cell_7_1 cell_7_2 cell_7_3 cell_7_4 cell_7_5 cell_7_6 cell_7_7 cell_7_8 cell_7_9) true))
(assert
 (and (distinct cell_8_1 cell_8_2 cell_8_3 cell_8_4 cell_8_5 cell_8_6 cell_8_7 cell_8_8 cell_8_9) true))
(assert
 (and (distinct cell_9_1 cell_9_2 cell_9_3 cell_9_4 cell_9_5 cell_9_6 cell_9_7 cell_9_8 cell_9_9) true))
(assert
 (and (distinct cell_1_1 cell_2_1 cell_3_1 cell_4_1 cell_5_1 cell_6_1 cell_7_1 cell_8_1 cell_9_1) true))
(assert
 (and (distinct cell_1_2 cell_2_2 cell_3_2 cell_4_2 cell_5_2 cell_6_2 cell_7_2 cell_8_2 cell_9_2) true))
(assert
 (and (distinct cell_1_3 cell_2_3 cell_3_3 cell_4_3 cell_5_3 cell_6_3 cell_7_3 cell_8_3 cell_9_3) true))
(assert
 (and (distinct cell_1_4 cell_2_4 cell_3_4 cell_4_4 cell_5_4 cell_6_4 cell_7_4 cell_8_4 cell_9_4) true))
(assert
 (and (distinct cell_1_5 cell_2_5 cell_3_5 cell_4_5 cell_5_5 cell_6_5 cell_7_5 cell_8_5 cell_9_5) true))
(assert
 (and (distinct cell_1_6 cell_2_6 cell_3_6 cell_4_6 cell_5_6 cell_6_6 cell_7_6 cell_8_6 cell_9_6) true))
(assert
 (and (distinct cell_1_7 cell_2_7 cell_3_7 cell_4_7 cell_5_7 cell_6_7 cell_7_7 cell_8_7 cell_9_7) true))
(assert
 (and (distinct cell_1_8 cell_2_8 cell_3_8 cell_4_8 cell_5_8 cell_6_8 cell_7_8 cell_8_8 cell_9_8) true))
(assert
 (and (distinct cell_1_9 cell_2_9 cell_3_9 cell_4_9 cell_5_9 cell_6_9 cell_7_9 cell_8_9 cell_9_9) true))
(assert
 (and (distinct cell_1_1 cell_1_2 cell_1_3 cell_2_1 cell_2_2 cell_2_3 cell_3_1 cell_3_2 cell_3_3) true))
(assert
 (and (distinct cell_1_4 cell_1_5 cell_1_6 cell_2_4 cell_2_5 cell_2_6 cell_3_4 cell_3_5 cell_3_6) true))
(assert
 (and (distinct cell_1_7 cell_1_8 cell_1_9 cell_2_7 cell_2_8 cell_2_9 cell_3_7 cell_3_8 cell_3_9) true))
(assert
 (and (distinct cell_4_1 cell_4_2 cell_4_3 cell_5_1 cell_5_2 cell_5_3 cell_6_1 cell_6_2 cell_6_3) true))
(assert
 (and (distinct cell_4_4 cell_4_5 cell_4_6 cell_5_4 cell_5_5 cell_5_6 cell_6_4 cell_6_5 cell_6_6) true))
(assert
 (and (distinct cell_4_7 cell_4_8 cell_4_9 cell_5_7 cell_5_8 cell_5_9 cell_6_7 cell_6_8 cell_6_9) true))
(assert
 (and (distinct cell_7_1 cell_7_2 cell_7_3 cell_8_1 cell_8_2 cell_8_3 cell_9_1 cell_9_2 cell_9_3) true))
(assert
 (and (distinct cell_7_4 cell_7_5 cell_7_6 cell_8_4 cell_8_5 cell_8_6 cell_9_4 cell_9_5 cell_9_6) true))
(assert
 (and (distinct cell_7_7 cell_7_8 cell_7_9 cell_8_7 cell_8_8 cell_8_9 cell_9_7 cell_9_8 cell_9_9) true))
(assert
 (let (($x2895 (and (distinct cell_5_9 cell_6_8 cell_7_7 cell_8_6) true)))
 (let (($x2574 (and (distinct cell_2_9 cell_3_8 cell_4_7 cell_5_6 cell_6_5 cell_7_4 cell_8_3 cell_9_2) true)))
 (let (($x2950 (and (distinct cell_1_8 cell_2_7 cell_3_6 cell_4_5 cell_5_4 cell_6_3 cell_7_2 cell_8_1) true)))
 (let (($x1946 (and (distinct cell_1_5 cell_2_4 cell_3_3 cell_4_2) true)))
 (let (($x1256 (and (distinct cell_5_1 cell_6_2 cell_7_3 cell_8_4) true)))
 (let (($x823 (and (distinct cell_2_1 cell_3_2 cell_4_3 cell_5_4 cell_6_5 cell_7_6 cell_8_7 cell_9_8) true)))
 (let (($x184 (and (distinct cell_1_2 cell_2_3 cell_3_4 cell_4_5 cell_5_6 cell_6_7 cell_7_8 cell_8_9) true)))
 (let (($x3494 (and (distinct cell_1_5 cell_2_6 cell_3_7 cell_4_8) true)))
 (and $x3494 $x184 $x823 $x1256 $x1946 $x2950 $x2574 $x2895))))))))))
(assert
 (= cell_8_7 2))
(check-sat)
